c Lingeling SAT Solver
c 
c Version bcq 87c2f8547dfbfb3f6e4f086d37f4439427053bf3
c 
c Copyright (C) 2010-2016 Armin Biere JKU Linz Austria.
c All rights reserved.
c 
c released Thu Apr 28 10:56:44 BST 2022
c compiled Thu Apr 28 10:56:44 BST 2022
c 
c Apple clang version 13.1.6 (clang-1316.0.21.2)
c -W -Wall -O3 -DNLGLOG -DNDEBUG -DNCHKSOL -DNLGLDRUPLIG -DNLGLYALSAT
c -DNLGLFILES -DNLGLDEMA
c Darwin gizmo.local 21.4.0 arm64
c 
c 
c  seconds         irredundant            redundant clauses   glue   iterations"      MB    stability
c          variables clauses conflicts  large ternary binary     jlevel       jlevel'  agility     tlevel
c 
c  S    0.0       0       43         0       0      0     0    0     0      0     0    0   0     0      0
c 
c  seconds         irredundant            redundant clauses   glue   iterations"      MB    stability
c          variables clauses conflicts  large ternary binary     jlevel       jlevel'  agility     tlevel
c 
s SATISFIABLE
v 1 2 3 4 5 6 7 -8 9 10 11 12 13 14 15 16 17 18 19 20 0
c
c    0.000  73% simplifying
c    0.000   7% search
c ==================================
c    0.000 100% all
c 
c             0 conflicts,           0.0 confs/sec
c             0 ternaries,           0.0 confs/ternary
c             0 binaries,            0.0 confs/binary
c             0 iterations,          0.0 confs/iteration
c 
c             0 reductions,          0.0 redus/sec,      0.0 confs/reduction
c             0 restarts,            0.0 rests/sec,      0.0 confs/restart
c             0 decisions,           0.0 decis/sec,      0.0 decis/conflict
c            20 propagations,   333333.3 props/sec,      0.0 props/decision
c 
c 0.0 seconds, 0.0 MB
